Route #1: 93 75
Route #2: 23 61 100
Route #3: 1 70 54
Route #4: 63 77 3
Route #5: 30 85 11 79
Route #6: 83 51 81
Route #7: 31 46 35
Route #8: 69 16 55 76
Route #9: 5 12 58
Route #10: 18 10 39
Route #11: 74 13 4
Route #12: 40 67 88 44
Route #13: 52 91 50
Route #14: 25 65 78 42 28
Route #15: 21 56 94 80
Route #16: 66 84 90 68
Route #17: 59 60 82
Route #18: 19 97 27
Route #19: 71 62 99 98 89
Route #20: 15 22 41 20
Route #21: 32 33 53 73 95 24
Route #22: 87 37 6 49 14
Route #23: 92 9 86
Route #24: 57 72 36 29 43 45 2 7
Route #25: 38 47 26 48 96 64 34
Route #26: 17 8
Cost 27591.0000
Time 16.0002